32	0

0	1	2
10	1	3
10	1	4
10	1	5
4	1	6
1	1	7
7	1	8
2	1	9
9	1	10
3	1	11
5	1	12
10	1	13
7	1	14
8	1	15
4	1	16
9	1	17
8	1	18
7	1	19
7	1	20
6	1	21
6	1	22
7	1	23
6	1	24
4	1	25
4	1	26
2	1	27
1	1	28
1	1	29
9	1	30
2	1	31
1	1	32
0	0
